p cnf 30 30
15 -11 -1 0
7 17 -2 0
-9 10 24 0
-13 19 25 0
12 -3 21 0
5 4 14 0
1 -18 -24 0
25 8 10 0
24 -11 9 0
-27 -29 6 0
24 27 -19 0
-17 13 7 0
28 -17 8 0
23 17 -10 0
24 -25 1 0
-24 -21 -25 0
-25 18 -20 0
24 -17 -15 0
15 13 28 0
25 -1 -18 0
27 -23 26 0
9 7 18 0
-9 3 -27 0
28 29 -18 0
15 -17 4 0
23 -2 22 0
-23 4 5 0
-26 -5 -20 0
-26 -8 15 0
-15 -1 -19 0
